datasets/2-dimensional/CL_09_25_05.vbp
2
963 947 
25
117 321 30
137 188 72
143 224 4
301 195 88
278 269 54
139 110 64
353 388 90
285 367 26
303 314 94
272 297 28
160 182 72
334 236 49
359 225 54
203 315 19
232 175 28
313 169 61
113 166 84
298 131 23
135 132 67
191 334 53
232 105 54
125 111 16
136 220 9
333 396 54
281 109 77
