datasets/2-dimensional/CL_09_25_05.txt
963 947 
0 30 117 321 
1 72 137 188 
2 4 143 224 
3 88 301 195 
4 54 278 269 
5 64 139 110 
6 90 353 388 
7 26 285 367 
8 94 303 314 
9 28 272 297 
10 72 160 182 
11 49 334 236 
12 54 359 225 
13 19 203 315 
14 28 232 175 
15 61 313 169 
16 84 113 166 
17 23 298 131 
18 67 135 132 
19 53 191 334 
20 54 232 105 
21 16 125 111 
22 9 136 220 
23 54 333 396 
24 77 281 109 
